p wcnf 16 24 19
1 -1 0
1 -2 0
1 -3 0
1 -4 0
1 -5 0
1 -6 0
3 -7 0
3 -8 0
3 -9 0
3 -10 0
19 7 1 0
19 7 3 0
19 7 5 0
19 8 2 0
19 8 4 0
19 8 6 0
19 9 11 12 13 0
19 -11 -1 0
19 -12 -3 0
19 -13 -5 0
19 10 14 15 16 0
19 -14 -1 0
19 -15 -3 0
19 -16 -5 0
